NAME : P = NP
TYPE : TSP
DIMENSION : 53
EDGE_WEIGHT_TYPE : EUC_2D
NODE_COORD_SECTION
0 252 301
1 855 458
2 320 323
3 7 688
4 19 103
5 78 377
6 834 446
7 364 26
8 549 373
9 4 8
10 8 409
11 762 59
12 79 25
13 149 482
14 136 865
15 21 127
16 261 24
17 25 865
18 341 504
19 219 318
20 407 28
21 87 86
22 50 38
23 45 70
24 307 208
25 398 655
26 22 187
27 156 324
28 27 569
29 16 535
30 17 167
31 347 353
32 16 372
33 48 516
34 13 42
35 360 172
36 847 4
37 25 622
38 146 39
39 329 51
40 198 513
41 235 136
42 97 432
43 125 412
44 5 727
45 99 59
46 272 79
47 51 108
48 71 258
49 43 113
50 321 436
51 718 154
52 452 337